Solver command line: ['/opt/anaconda3/pkgs/ipopt-3.12.13-hfed70e2_1/bin/ipopt', '/var/folders/cq/m3l57gls7sd4frc5c817zcxc0000gq/T/tmp6xle98do.pyomo.nl', '-AMPL', 'print_level=5', 'max_iter=1000', 'max_cpu_time=3600', 'tol=0.1', 'option_file_name=/var/folders/cq/m3l57gls7sd4frc5c817zcxc0000gq/T/tmp6yo_x8k3_ipopt.opt']

Ipopt 3.12.13: print_level=5
max_iter=1000
max_cpu_time=3600
tol=0.1
option_file_name=/var/folders/cq/m3l57gls7sd4frc5c817zcxc0000gq/T/tmp6yo_x8k3_ipopt.opt

Using option file "/var/folders/cq/m3l57gls7sd4frc5c817zcxc0000gq/T/tmp6yo_x8k3_ipopt.opt".


******************************************************************************
This program contains Ipopt, a library for large-scale nonlinear optimization.
 Ipopt is released as open source code under the Eclipse Public License (EPL).
         For more information visit http://projects.coin-or.org/Ipopt
******************************************************************************

This is Ipopt version 3.12.13, running with linear solver mumps.
NOTE: Other linear solvers might be more efficient (see Ipopt documentation).

Number of nonzeros in equality constraint Jacobian...:    67676
Number of nonzeros in inequality constraint Jacobian.:     2970
Number of nonzeros in Lagrangian Hessian.............:        0

Total number of variables............................:    21700
                     variables with only lower bounds:        0
                variables with lower and upper bounds:        0
                     variables with only upper bounds:        0
Total number of equality constraints.................:    17992
Total number of inequality constraints...............:     2970
        inequality constraints with only lower bounds:        0
   inequality constraints with lower and upper bounds:        0
        inequality constraints with only upper bounds:     2970

iter    objective    inf_pr   inf_du lg(mu)  ||d||  lg(rg) alpha_du alpha_pr  ls
   0  0.0000000e+00 2.15e+02 5.51e-01   0.0 0.00e+00    -  0.00e+00 0.00e+00   0
  10  1.3063809e+04 6.36e+00 3.11e+02  -5.6 7.98e+01  -8.3 2.47e-01 1.31e-01f  1
  20  1.0176283e+04 2.94e-01 2.03e+02  -6.5 3.53e+01 -12.6 1.43e-01 1.20e-01f  1
  30  8.1282866e+03 1.85e-01 3.56e+02  -0.9 6.09e+01    -  2.43e-01 3.78e-01f  1
  40  6.6638690e+03 7.32e-02 5.89e+01  -7.2 3.39e+02 -13.5 8.53e-03 3.95e-03f  1
  50  5.5644400e+03 1.41e-01 1.04e+02  -1.0 9.21e+01 -14.2 4.88e-02 1.75e-01f  1
  60  4.6858534e+03 5.88e-02 1.06e+03  -2.8 5.57e+01 -13.5 7.41e-02 5.14e-01f  1
  70  4.3009150e+03 5.14e-04 1.14e+00  -4.1 1.66e+00 -14.2 1.00e+00 1.00e+00f  1
  80  4.2918793e+03 4.46e-04 1.62e+00 -10.0 1.63e+00 -14.0 6.20e-01 5.00e-01f  2
  90  4.2897008e+03 3.01e-04 6.70e+00  -5.3 6.09e+00 -14.2 1.00e+00 1.16e-01f  2
iter    objective    inf_pr   inf_du lg(mu)  ||d||  lg(rg) alpha_du alpha_pr  ls
 100  4.2887901e+03 1.09e-05 6.80e-01  -7.2 4.21e-01 -11.7 9.51e-01 5.00e-01f  2
 110  4.2882015e+03 9.12e-07 6.70e-01  -9.0 5.73e-02 -12.4 1.00e+00 4.10e-01f  1
 120  4.2880493e+03 1.96e-07 7.22e-01  -9.7 2.79e-02 -11.3 1.00e+00 1.00e+00f  1
 130  4.2879532e+03 5.83e-07 8.63e-01  -9.1 3.97e-02 -11.5 1.00e+00 1.00e+00f  1
 140  4.2878721e+03 3.61e-07 1.56e+00  -6.3 1.20e-01 -10.4 8.44e-01 2.50e-01f  3
 150  4.2878339e+03 4.22e-08 6.77e-01 -10.5 1.77e-02 -10.7 1.00e+00 5.15e-01f  1

Number of Iterations....: 152

                                   (scaled)                 (unscaled)
Objective...............:   4.2878253393770992e+03    4.2878253393770992e+03
Dual infeasibility......:   3.7388402048218472e-02    3.7388402048218472e-02
Constraint violation....:   6.2346588926166435e-09    1.0538599326537224e-08
Complementarity.........:   2.5651001770622968e-11    2.5651001770622968e-11
Overall NLP error.......:   3.7388402048218472e-02    3.7388402048218472e-02


Number of objective function evaluations             = 269
Number of objective gradient evaluations             = 153
Number of equality constraint evaluations            = 269
Number of inequality constraint evaluations          = 269
Number of equality constraint Jacobian evaluations   = 153
Number of inequality constraint Jacobian evaluations = 153
Number of Lagrangian Hessian evaluations             = 0
Total CPU secs in IPOPT (w/o function evaluations)   =    376.514
Total CPU secs in NLP function evaluations           =     21.617


Timing Statistics:

OverallAlgorithm....................:    398.132 (sys:     92.979 wall:     65.956)
 PrintProblemStatistics.............:      0.003 (sys:      0.001 wall:      0.001)
 InitializeIterates.................:      0.495 (sys:      0.142 wall:      0.310)
 UpdateHessian......................:      4.235 (sys:      1.005 wall:      0.718)
 OutputIteration....................:      0.024 (sys:      0.006 wall:      0.004)
 UpdateBarrierParameter.............:    335.242 (sys:     78.191 wall:     55.267)
 ComputeSearchDirection.............:     21.243 (sys:      4.825 wall:      3.505)
 ComputeAcceptableTrialPoint........:     28.321 (sys:      6.691 wall:      4.692)
 AcceptTrialPoint...................:      0.693 (sys:      0.135 wall:      0.106)
 CheckConvergence...................:      7.858 (sys:      1.976 wall:      1.349)
PDSystemSolverTotal.................:    353.136 (sys:     82.172 wall:     58.195)
 PDSystemSolverSolveOnce............:    348.972 (sys:     81.252 wall:     57.507)
 ComputeResiduals...................:      3.907 (sys:      0.859 wall:      0.646)
 StdAugSystemSolverMultiSolve.......:    342.363 (sys:     80.067 wall:     56.602)
 LinearSystemScaling................:      0.000 (sys:      0.000 wall:      0.000)
 LinearSystemSymbolicFactorization..:      0.137 (sys:      0.003 wall:      0.142)
 LinearSystemFactorization..........:      0.000 (sys:      0.000 wall:      0.000)
 LinearSystemBackSolve..............:    216.556 (sys:     49.241 wall:     35.300)
 LinearSystemStructureConverter.....:      0.000 (sys:      0.000 wall:      0.000)
  LinearSystemStructureConverterInit:      0.000 (sys:      0.000 wall:      0.000)
QualityFunctionSearch...............:      9.365 (sys:      2.199 wall:      1.553)
TryCorrector........................:      0.000 (sys:      0.000 wall:      0.000)
Task1...............................:      0.810 (sys:      0.194 wall:      0.135)
Task2...............................:      0.614 (sys:      0.146 wall:      0.102)
Task3...............................:      0.197 (sys:      0.049 wall:      0.033)
Task4...............................:      0.000 (sys:      0.000 wall:      0.000)
Task5...............................:      7.609 (sys:      1.769 wall:      1.260)
Function Evaluations................:     21.617 (sys:      5.234 wall:      3.643)
 Objective function.................:      0.190 (sys:      0.048 wall:      0.032)
 Objective function gradient........:      0.309 (sys:      0.078 wall:      0.054)
 Equality constraints...............:     16.237 (sys:      3.885 wall:      2.707)
 Inequality constraints.............:      0.041 (sys:      0.008 wall:      0.015)
 Equality constraint Jacobian.......:      4.832 (sys:      1.213 wall:      0.834)
 Inequality constraint Jacobian.....:      0.008 (sys:      0.002 wall:      0.001)
 Lagrangian Hessian.................:      0.000 (sys:      0.000 wall:      0.000)

EXIT: Optimal Solution Found.

